p cnf 332 2432
1 -137 0
1 -138 0
137 -137 0
138 -138 0
18 -145 0
18 -146 0
145 -145 0
146 -146 0
35 -153 0
35 -154 0
153 -153 0
154 -154 0
52 -161 0
52 -162 0
161 -161 0
162 -162 0
69 -169 0
69 -170 0
169 -169 0
170 -170 0
86 -177 0
86 -178 0
177 -177 0
178 -178 0
103 -185 0
103 -186 0
185 -185 0
186 -186 0
120 -193 0
120 -194 0
193 -193 0
194 -194 0
2 -137 0
2 -138 0
137 -137 0
138 -138 0
19 -145 0
19 -146 0
145 -145 0
146 -146 0
36 -153 0
36 -154 0
153 -153 0
154 -154 0
53 -161 0
53 -162 0
161 -161 0
162 -162 0
70 -169 0
70 -170 0
169 -169 0
170 -170 0
87 -177 0
87 -178 0
177 -177 0
178 -178 0
104 -185 0
104 -186 0
185 -185 0
186 -186 0
121 -193 0
121 -194 0
193 -193 0
194 -194 0
3 -137 0
3 -138 0
137 -137 0
138 -138 0
20 -145 0
20 -146 0
145 -145 0
146 -146 0
37 -153 0
37 -154 0
153 -153 0
154 -154 0
54 -161 0
54 -162 0
161 -161 0
162 -162 0
71 -169 0
71 -170 0
169 -169 0
170 -170 0
88 -177 0
88 -178 0
177 -177 0
178 -178 0
105 -185 0
105 -186 0
185 -185 0
186 -186 0
122 -193 0
122 -194 0
193 -193 0
194 -194 0
4 -137 0
4 -138 0
137 -137 0
138 -138 0
21 -145 0
21 -146 0
145 -145 0
146 -146 0
38 -153 0
38 -154 0
153 -153 0
154 -154 0
55 -161 0
55 -162 0
161 -161 0
162 -162 0
72 -169 0
72 -170 0
169 -169 0
170 -170 0
89 -177 0
89 -178 0
177 -177 0
178 -178 0
106 -185 0
106 -186 0
185 -185 0
186 -186 0
123 -193 0
123 -194 0
193 -193 0
194 -194 0
5 -137 0
5 -138 0
137 -137 0
138 -138 0
22 -145 0
22 -146 0
145 -145 0
146 -146 0
39 -153 0
39 -154 0
153 -153 0
154 -154 0
56 -161 0
56 -162 0
161 -161 0
162 -162 0
73 -169 0
73 -170 0
169 -169 0
170 -170 0
90 -177 0
90 -178 0
177 -177 0
178 -178 0
107 -185 0
107 -186 0
185 -185 0
186 -186 0
124 -193 0
124 -194 0
193 -193 0
194 -194 0
6 -201 -137 0
-6 201 -137 0
6 201 -138 0
-6 -201 -138 0
23 -201 -145 0
-23 201 -145 0
23 201 -146 0
-23 -201 -146 0
40 -201 -153 0
-40 201 -153 0
40 201 -154 0
-40 -201 -154 0
57 -201 -161 0
-57 201 -161 0
57 201 -162 0
-57 -201 -162 0
74 -201 -169 0
-74 201 -169 0
74 201 -170 0
-74 -201 -170 0
91 -201 -177 0
-91 201 -177 0
91 201 -178 0
-91 -201 -178 0
108 -201 -185 0
-108 201 -185 0
108 201 -186 0
-108 -201 -186 0
125 -201 -193 0
-125 201 -193 0
125 201 -194 0
-125 -201 -194 0
7 -202 -137 0
-7 202 -137 0
7 202 -138 0
-7 -202 -138 0
24 -202 -145 0
-24 202 -145 0
24 202 -146 0
-24 -202 -146 0
41 -202 -153 0
-41 202 -153 0
41 202 -154 0
-41 -202 -154 0
58 -202 -161 0
-58 202 -161 0
58 202 -162 0
-58 -202 -162 0
75 -202 -169 0
-75 202 -169 0
75 202 -170 0
-75 -202 -170 0
92 -202 -177 0
-92 202 -177 0
92 202 -178 0
-92 -202 -178 0
109 -202 -185 0
-109 202 -185 0
109 202 -186 0
-109 -202 -186 0
126 -202 -193 0
-126 202 -193 0
126 202 -194 0
-126 -202 -194 0
8 -137 0
8 -138 0
137 -137 0
138 -138 0
25 -145 0
25 -146 0
145 -145 0
146 -146 0
42 -153 0
42 -154 0
153 -153 0
154 -154 0
59 -161 0
59 -162 0
161 -161 0
162 -162 0
76 -169 0
76 -170 0
169 -169 0
170 -170 0
93 -177 0
93 -178 0
177 -177 0
178 -178 0
110 -185 0
110 -186 0
185 -185 0
186 -186 0
127 -193 0
127 -194 0
193 -193 0
194 -194 0
9 -137 0
9 -138 0
137 -137 0
138 -138 0
26 -145 0
26 -146 0
145 -145 0
146 -146 0
43 -153 0
43 -154 0
153 -153 0
154 -154 0
60 -161 0
60 -162 0
161 -161 0
162 -162 0
77 -169 0
77 -170 0
169 -169 0
170 -170 0
94 -177 0
94 -178 0
177 -177 0
178 -178 0
111 -185 0
111 -186 0
185 -185 0
186 -186 0
128 -193 0
128 -194 0
193 -193 0
194 -194 0
10 -137 0
10 -138 0
137 -137 0
138 -138 0
27 -145 0
27 -146 0
145 -145 0
146 -146 0
44 -153 0
44 -154 0
153 -153 0
154 -154 0
61 -161 0
61 -162 0
161 -161 0
162 -162 0
78 -169 0
78 -170 0
169 -169 0
170 -170 0
95 -177 0
95 -178 0
177 -177 0
178 -178 0
112 -185 0
112 -186 0
185 -185 0
186 -186 0
129 -193 0
129 -194 0
193 -193 0
194 -194 0
11 -137 0
11 -138 0
137 -137 0
138 -138 0
28 -145 0
28 -146 0
145 -145 0
146 -146 0
45 -153 0
45 -154 0
153 -153 0
154 -154 0
62 -161 0
62 -162 0
161 -161 0
162 -162 0
79 -169 0
79 -170 0
169 -169 0
170 -170 0
96 -177 0
96 -178 0
177 -177 0
178 -178 0
113 -185 0
113 -186 0
185 -185 0
186 -186 0
130 -193 0
130 -194 0
193 -193 0
194 -194 0
12 -137 0
12 -138 0
137 -137 0
138 -138 0
29 -145 0
29 -146 0
145 -145 0
146 -146 0
46 -153 0
46 -154 0
153 -153 0
154 -154 0
63 -161 0
63 -162 0
161 -161 0
162 -162 0
80 -169 0
80 -170 0
169 -169 0
170 -170 0
97 -177 0
97 -178 0
177 -177 0
178 -178 0
114 -185 0
114 -186 0
185 -185 0
186 -186 0
131 -193 0
131 -194 0
193 -193 0
194 -194 0
-13 -137 0
-13 -138 0
137 -137 0
138 -138 0
-30 -145 0
-30 -146 0
145 -145 0
146 -146 0
-47 -153 0
-47 -154 0
153 -153 0
154 -154 0
-64 -161 0
-64 -162 0
161 -161 0
162 -162 0
-81 -169 0
-81 -170 0
169 -169 0
170 -170 0
-98 -177 0
-98 -178 0
177 -177 0
178 -178 0
-115 -185 0
-115 -186 0
185 -185 0
186 -186 0
-132 -193 0
-132 -194 0
193 -193 0
194 -194 0
14 -137 0
14 -138 0
137 -137 0
138 -138 0
31 -145 0
31 -146 0
145 -145 0
146 -146 0
48 -153 0
48 -154 0
153 -153 0
154 -154 0
65 -161 0
65 -162 0
161 -161 0
162 -162 0
82 -169 0
82 -170 0
169 -169 0
170 -170 0
99 -177 0
99 -178 0
177 -177 0
178 -178 0
116 -185 0
116 -186 0
185 -185 0
186 -186 0
133 -193 0
133 -194 0
193 -193 0
194 -194 0
15 -137 0
15 -138 0
137 -137 0
138 -138 0
32 -145 0
32 -146 0
145 -145 0
146 -146 0
49 -153 0
49 -154 0
153 -153 0
154 -154 0
66 -161 0
66 -162 0
161 -161 0
162 -162 0
83 -169 0
83 -170 0
169 -169 0
170 -170 0
100 -177 0
100 -178 0
177 -177 0
178 -178 0
117 -185 0
117 -186 0
185 -185 0
186 -186 0
134 -193 0
134 -194 0
193 -193 0
194 -194 0
-16 -137 0
-16 -138 0
137 -137 0
138 -138 0
-33 -145 0
-33 -146 0
145 -145 0
146 -146 0
-50 -153 0
-50 -154 0
153 -153 0
154 -154 0
-67 -161 0
-67 -162 0
161 -161 0
162 -162 0
-84 -169 0
-84 -170 0
169 -169 0
170 -170 0
-101 -177 0
-101 -178 0
177 -177 0
178 -178 0
-118 -185 0
-118 -186 0
185 -185 0
186 -186 0
-135 -193 0
-135 -194 0
193 -193 0
194 -194 0
-17 -137 0
-17 -138 0
137 -137 0
138 -138 0
-34 -145 0
-34 -146 0
145 -145 0
146 -146 0
-51 -153 0
-51 -154 0
153 -153 0
154 -154 0
-68 -161 0
-68 -162 0
161 -161 0
162 -162 0
-85 -169 0
-85 -170 0
169 -169 0
170 -170 0
-102 -177 0
-102 -178 0
177 -177 0
178 -178 0
-119 -185 0
-119 -186 0
185 -185 0
186 -186 0
-136 -193 0
-136 -194 0
193 -193 0
194 -194 0
-269 137 0
269 -137 0
-270 138 0
269 -138 0
-269 -137 0
-270 -138 0
-277 137 269 0
277 -137 0
277 -269 0
-278 138 270 0
278 -138 0
278 -270 0
-277 -145 0
-278 -146 0
-285 145 277 0
285 -145 0
285 -277 0
-286 146 278 0
286 -146 0
286 -278 0
-285 -153 0
-286 -154 0
-293 153 285 0
293 -153 0
293 -285 0
-294 154 286 0
294 -154 0
294 -286 0
-293 -161 0
-294 -162 0
-301 161 293 0
301 -161 0
301 -293 0
-302 162 294 0
302 -162 0
302 -294 0
-301 -169 0
-302 -170 0
-309 169 301 0
309 -169 0
309 -301 0
-310 170 302 0
310 -170 0
310 -302 0
-309 -177 0
-310 -178 0
-317 177 309 0
317 -177 0
317 -309 0
-318 178 310 0
318 -178 0
318 -310 0
-317 -185 0
-318 -186 0
-325 185 317 0
325 -185 0
325 -317 0
-326 186 318 0
326 -186 0
326 -318 0
-325 -193 0
-326 -194 0
325 0
326 0
1 -203 -139 0
-1 203 -139 0
1 203 -140 0
-1 -203 -140 0
18 -203 -147 0
-18 203 -147 0
18 203 -148 0
-18 -203 -148 0
35 -203 -155 0
-35 203 -155 0
35 203 -156 0
-35 -203 -156 0
52 -203 -163 0
-52 203 -163 0
52 203 -164 0
-52 -203 -164 0
69 -203 -171 0
-69 203 -171 0
69 203 -172 0
-69 -203 -172 0
86 -203 -179 0
-86 203 -179 0
86 203 -180 0
-86 -203 -180 0
103 -203 -187 0
-103 203 -187 0
103 203 -188 0
-103 -203 -188 0
120 -203 -195 0
-120 203 -195 0
120 203 -196 0
-120 -203 -196 0
2 -139 0
2 -140 0
139 -139 0
140 -140 0
19 -147 0
19 -148 0
147 -147 0
148 -148 0
36 -155 0
36 -156 0
155 -155 0
156 -156 0
53 -163 0
53 -164 0
163 -163 0
164 -164 0
70 -171 0
70 -172 0
171 -171 0
172 -172 0
87 -179 0
87 -180 0
179 -179 0
180 -180 0
104 -187 0
104 -188 0
187 -187 0
188 -188 0
121 -195 0
121 -196 0
195 -195 0
196 -196 0
3 -139 0
3 -140 0
139 -139 0
140 -140 0
20 -147 0
20 -148 0
147 -147 0
148 -148 0
37 -155 0
37 -156 0
155 -155 0
156 -156 0
54 -163 0
54 -164 0
163 -163 0
164 -164 0
71 -171 0
71 -172 0
171 -171 0
172 -172 0
88 -179 0
88 -180 0
179 -179 0
180 -180 0
105 -187 0
105 -188 0
187 -187 0
188 -188 0
122 -195 0
122 -196 0
195 -195 0
196 -196 0
4 -139 0
4 -140 0
139 -139 0
140 -140 0
21 -147 0
21 -148 0
147 -147 0
148 -148 0
38 -155 0
38 -156 0
155 -155 0
156 -156 0
55 -163 0
55 -164 0
163 -163 0
164 -164 0
72 -171 0
72 -172 0
171 -171 0
172 -172 0
89 -179 0
89 -180 0
179 -179 0
180 -180 0
106 -187 0
106 -188 0
187 -187 0
188 -188 0
123 -195 0
123 -196 0
195 -195 0
196 -196 0
5 -204 -139 0
-5 204 -139 0
5 204 -140 0
-5 -204 -140 0
22 -204 -147 0
-22 204 -147 0
22 204 -148 0
-22 -204 -148 0
39 -204 -155 0
-39 204 -155 0
39 204 -156 0
-39 -204 -156 0
56 -204 -163 0
-56 204 -163 0
56 204 -164 0
-56 -204 -164 0
73 -204 -171 0
-73 204 -171 0
73 204 -172 0
-73 -204 -172 0
90 -204 -179 0
-90 204 -179 0
90 204 -180 0
-90 -204 -180 0
107 -204 -187 0
-107 204 -187 0
107 204 -188 0
-107 -204 -188 0
124 -204 -195 0
-124 204 -195 0
124 204 -196 0
-124 -204 -196 0
6 -205 -139 0
-6 205 -139 0
6 205 -140 0
-6 -205 -140 0
23 -205 -147 0
-23 205 -147 0
23 205 -148 0
-23 -205 -148 0
40 -205 -155 0
-40 205 -155 0
40 205 -156 0
-40 -205 -156 0
57 -205 -163 0
-57 205 -163 0
57 205 -164 0
-57 -205 -164 0
74 -205 -171 0
-74 205 -171 0
74 205 -172 0
-74 -205 -172 0
91 -205 -179 0
-91 205 -179 0
91 205 -180 0
-91 -205 -180 0
108 -205 -187 0
-108 205 -187 0
108 205 -188 0
-108 -205 -188 0
125 -205 -195 0
-125 205 -195 0
125 205 -196 0
-125 -205 -196 0
7 -206 -139 0
-7 206 -139 0
7 206 -140 0
-7 -206 -140 0
24 -206 -147 0
-24 206 -147 0
24 206 -148 0
-24 -206 -148 0
41 -206 -155 0
-41 206 -155 0
41 206 -156 0
-41 -206 -156 0
58 -206 -163 0
-58 206 -163 0
58 206 -164 0
-58 -206 -164 0
75 -206 -171 0
-75 206 -171 0
75 206 -172 0
-75 -206 -172 0
92 -206 -179 0
-92 206 -179 0
92 206 -180 0
-92 -206 -180 0
109 -206 -187 0
-109 206 -187 0
109 206 -188 0
-109 -206 -188 0
126 -206 -195 0
-126 206 -195 0
126 206 -196 0
-126 -206 -196 0
8 -139 0
8 -140 0
139 -139 0
140 -140 0
25 -147 0
25 -148 0
147 -147 0
148 -148 0
42 -155 0
42 -156 0
155 -155 0
156 -156 0
59 -163 0
59 -164 0
163 -163 0
164 -164 0
76 -171 0
76 -172 0
171 -171 0
172 -172 0
93 -179 0
93 -180 0
179 -179 0
180 -180 0
110 -187 0
110 -188 0
187 -187 0
188 -188 0
127 -195 0
127 -196 0
195 -195 0
196 -196 0
9 -139 0
9 -140 0
139 -139 0
140 -140 0
26 -147 0
26 -148 0
147 -147 0
148 -148 0
43 -155 0
43 -156 0
155 -155 0
156 -156 0
60 -163 0
60 -164 0
163 -163 0
164 -164 0
77 -171 0
77 -172 0
171 -171 0
172 -172 0
94 -179 0
94 -180 0
179 -179 0
180 -180 0
111 -187 0
111 -188 0
187 -187 0
188 -188 0
128 -195 0
128 -196 0
195 -195 0
196 -196 0
10 -207 -139 0
-10 207 -139 0
10 207 -140 0
-10 -207 -140 0
27 -207 -147 0
-27 207 -147 0
27 207 -148 0
-27 -207 -148 0
44 -207 -155 0
-44 207 -155 0
44 207 -156 0
-44 -207 -156 0
61 -207 -163 0
-61 207 -163 0
61 207 -164 0
-61 -207 -164 0
78 -207 -171 0
-78 207 -171 0
78 207 -172 0
-78 -207 -172 0
95 -207 -179 0
-95 207 -179 0
95 207 -180 0
-95 -207 -180 0
112 -207 -187 0
-112 207 -187 0
112 207 -188 0
-112 -207 -188 0
129 -207 -195 0
-129 207 -195 0
129 207 -196 0
-129 -207 -196 0
11 -139 0
11 -140 0
139 -139 0
140 -140 0
28 -147 0
28 -148 0
147 -147 0
148 -148 0
45 -155 0
45 -156 0
155 -155 0
156 -156 0
62 -163 0
62 -164 0
163 -163 0
164 -164 0
79 -171 0
79 -172 0
171 -171 0
172 -172 0
96 -179 0
96 -180 0
179 -179 0
180 -180 0
113 -187 0
113 -188 0
187 -187 0
188 -188 0
130 -195 0
130 -196 0
195 -195 0
196 -196 0
12 -139 0
12 -140 0
139 -139 0
140 -140 0
29 -147 0
29 -148 0
147 -147 0
148 -148 0
46 -155 0
46 -156 0
155 -155 0
156 -156 0
63 -163 0
63 -164 0
163 -163 0
164 -164 0
80 -171 0
80 -172 0
171 -171 0
172 -172 0
97 -179 0
97 -180 0
179 -179 0
180 -180 0
114 -187 0
114 -188 0
187 -187 0
188 -188 0
131 -195 0
131 -196 0
195 -195 0
196 -196 0
13 -208 -139 0
-13 208 -139 0
13 208 -140 0
-13 -208 -140 0
30 -208 -147 0
-30 208 -147 0
30 208 -148 0
-30 -208 -148 0
47 -208 -155 0
-47 208 -155 0
47 208 -156 0
-47 -208 -156 0
64 -208 -163 0
-64 208 -163 0
64 208 -164 0
-64 -208 -164 0
81 -208 -171 0
-81 208 -171 0
81 208 -172 0
-81 -208 -172 0
98 -208 -179 0
-98 208 -179 0
98 208 -180 0
-98 -208 -180 0
115 -208 -187 0
-115 208 -187 0
115 208 -188 0
-115 -208 -188 0
132 -208 -195 0
-132 208 -195 0
132 208 -196 0
-132 -208 -196 0
14 -139 0
14 -140 0
139 -139 0
140 -140 0
31 -147 0
31 -148 0
147 -147 0
148 -148 0
48 -155 0
48 -156 0
155 -155 0
156 -156 0
65 -163 0
65 -164 0
163 -163 0
164 -164 0
82 -171 0
82 -172 0
171 -171 0
172 -172 0
99 -179 0
99 -180 0
179 -179 0
180 -180 0
116 -187 0
116 -188 0
187 -187 0
188 -188 0
133 -195 0
133 -196 0
195 -195 0
196 -196 0
15 -209 -139 0
-15 209 -139 0
15 209 -140 0
-15 -209 -140 0
32 -209 -147 0
-32 209 -147 0
32 209 -148 0
-32 -209 -148 0
49 -209 -155 0
-49 209 -155 0
49 209 -156 0
-49 -209 -156 0
66 -209 -163 0
-66 209 -163 0
66 209 -164 0
-66 -209 -164 0
83 -209 -171 0
-83 209 -171 0
83 209 -172 0
-83 -209 -172 0
100 -209 -179 0
-100 209 -179 0
100 209 -180 0
-100 -209 -180 0
117 -209 -187 0
-117 209 -187 0
117 209 -188 0
-117 -209 -188 0
134 -209 -195 0
-134 209 -195 0
134 209 -196 0
-134 -209 -196 0
16 -210 -139 0
-16 210 -139 0
16 210 -140 0
-16 -210 -140 0
33 -210 -147 0
-33 210 -147 0
33 210 -148 0
-33 -210 -148 0
50 -210 -155 0
-50 210 -155 0
50 210 -156 0
-50 -210 -156 0
67 -210 -163 0
-67 210 -163 0
67 210 -164 0
-67 -210 -164 0
84 -210 -171 0
-84 210 -171 0
84 210 -172 0
-84 -210 -172 0
101 -210 -179 0
-101 210 -179 0
101 210 -180 0
-101 -210 -180 0
118 -210 -187 0
-118 210 -187 0
118 210 -188 0
-118 -210 -188 0
135 -210 -195 0
-135 210 -195 0
135 210 -196 0
-135 -210 -196 0
17 -211 -139 0
-17 211 -139 0
17 211 -140 0
-17 -211 -140 0
34 -211 -147 0
-34 211 -147 0
34 211 -148 0
-34 -211 -148 0
51 -211 -155 0
-51 211 -155 0
51 211 -156 0
-51 -211 -156 0
68 -211 -163 0
-68 211 -163 0
68 211 -164 0
-68 -211 -164 0
85 -211 -171 0
-85 211 -171 0
85 211 -172 0
-85 -211 -172 0
102 -211 -179 0
-102 211 -179 0
102 211 -180 0
-102 -211 -180 0
119 -211 -187 0
-119 211 -187 0
119 211 -188 0
-119 -211 -188 0
136 -211 -195 0
-136 211 -195 0
136 211 -196 0
-136 -211 -196 0
-271 139 0
271 -139 0
-272 140 0
271 -140 0
-271 -139 0
-272 -140 0
-279 139 271 0
279 -139 0
279 -271 0
-280 140 272 0
280 -140 0
280 -272 0
-279 -147 0
-280 -148 0
-287 147 279 0
287 -147 0
287 -279 0
-288 148 280 0
288 -148 0
288 -280 0
-287 -155 0
-288 -156 0
-295 155 287 0
295 -155 0
295 -287 0
-296 156 288 0
296 -156 0
296 -288 0
-295 -163 0
-296 -164 0
-303 163 295 0
303 -163 0
303 -295 0
-304 164 296 0
304 -164 0
304 -296 0
-303 -171 0
-304 -172 0
-311 171 303 0
311 -171 0
311 -303 0
-312 172 304 0
312 -172 0
312 -304 0
-311 -179 0
-312 -180 0
-319 179 311 0
319 -179 0
319 -311 0
-320 180 312 0
320 -180 0
320 -312 0
-319 -187 0
-320 -188 0
-327 187 319 0
327 -187 0
327 -319 0
-328 188 320 0
328 -188 0
328 -320 0
-327 -195 0
-328 -196 0
327 0
328 0
-1 -141 0
-1 -142 0
141 -141 0
142 -142 0
-18 -149 0
-18 -150 0
149 -149 0
150 -150 0
-35 -157 0
-35 -158 0
157 -157 0
158 -158 0
-52 -165 0
-52 -166 0
165 -165 0
166 -166 0
-69 -173 0
-69 -174 0
173 -173 0
174 -174 0
-86 -181 0
-86 -182 0
181 -181 0
182 -182 0
-103 -189 0
-103 -190 0
189 -189 0
190 -190 0
-120 -197 0
-120 -198 0
197 -197 0
198 -198 0
2 -141 0
2 -142 0
141 -141 0
142 -142 0
19 -149 0
19 -150 0
149 -149 0
150 -150 0
36 -157 0
36 -158 0
157 -157 0
158 -158 0
53 -165 0
53 -166 0
165 -165 0
166 -166 0
70 -173 0
70 -174 0
173 -173 0
174 -174 0
87 -181 0
87 -182 0
181 -181 0
182 -182 0
104 -189 0
104 -190 0
189 -189 0
190 -190 0
121 -197 0
121 -198 0
197 -197 0
198 -198 0
3 -141 0
3 -142 0
141 -141 0
142 -142 0
20 -149 0
20 -150 0
149 -149 0
150 -150 0
37 -157 0
37 -158 0
157 -157 0
158 -158 0
54 -165 0
54 -166 0
165 -165 0
166 -166 0
71 -173 0
71 -174 0
173 -173 0
174 -174 0
88 -181 0
88 -182 0
181 -181 0
182 -182 0
105 -189 0
105 -190 0
189 -189 0
190 -190 0
122 -197 0
122 -198 0
197 -197 0
198 -198 0
4 -141 0
4 -142 0
141 -141 0
142 -142 0
21 -149 0
21 -150 0
149 -149 0
150 -150 0
38 -157 0
38 -158 0
157 -157 0
158 -158 0
55 -165 0
55 -166 0
165 -165 0
166 -166 0
72 -173 0
72 -174 0
173 -173 0
174 -174 0
89 -181 0
89 -182 0
181 -181 0
182 -182 0
106 -189 0
106 -190 0
189 -189 0
190 -190 0
123 -197 0
123 -198 0
197 -197 0
198 -198 0
5 -141 0
5 -142 0
141 -141 0
142 -142 0
22 -149 0
22 -150 0
149 -149 0
150 -150 0
39 -157 0
39 -158 0
157 -157 0
158 -158 0
56 -165 0
56 -166 0
165 -165 0
166 -166 0
73 -173 0
73 -174 0
173 -173 0
174 -174 0
90 -181 0
90 -182 0
181 -181 0
182 -182 0
107 -189 0
107 -190 0
189 -189 0
190 -190 0
124 -197 0
124 -198 0
197 -197 0
198 -198 0
6 -212 -141 0
-6 212 -141 0
6 212 -142 0
-6 -212 -142 0
23 -212 -149 0
-23 212 -149 0
23 212 -150 0
-23 -212 -150 0
40 -212 -157 0
-40 212 -157 0
40 212 -158 0
-40 -212 -158 0
57 -212 -165 0
-57 212 -165 0
57 212 -166 0
-57 -212 -166 0
74 -212 -173 0
-74 212 -173 0
74 212 -174 0
-74 -212 -174 0
91 -212 -181 0
-91 212 -181 0
91 212 -182 0
-91 -212 -182 0
108 -212 -189 0
-108 212 -189 0
108 212 -190 0
-108 -212 -190 0
125 -212 -197 0
-125 212 -197 0
125 212 -198 0
-125 -212 -198 0
7 -213 -141 0
-7 213 -141 0
7 213 -142 0
-7 -213 -142 0
24 -213 -149 0
-24 213 -149 0
24 213 -150 0
-24 -213 -150 0
41 -213 -157 0
-41 213 -157 0
41 213 -158 0
-41 -213 -158 0
58 -213 -165 0
-58 213 -165 0
58 213 -166 0
-58 -213 -166 0
75 -213 -173 0
-75 213 -173 0
75 213 -174 0
-75 -213 -174 0
92 -213 -181 0
-92 213 -181 0
92 213 -182 0
-92 -213 -182 0
109 -213 -189 0
-109 213 -189 0
109 213 -190 0
-109 -213 -190 0
126 -213 -197 0
-126 213 -197 0
126 213 -198 0
-126 -213 -198 0
8 -214 -141 0
-8 214 -141 0
8 214 -142 0
-8 -214 -142 0
25 -214 -149 0
-25 214 -149 0
25 214 -150 0
-25 -214 -150 0
42 -214 -157 0
-42 214 -157 0
42 214 -158 0
-42 -214 -158 0
59 -214 -165 0
-59 214 -165 0
59 214 -166 0
-59 -214 -166 0
76 -214 -173 0
-76 214 -173 0
76 214 -174 0
-76 -214 -174 0
93 -214 -181 0
-93 214 -181 0
93 214 -182 0
-93 -214 -182 0
110 -214 -189 0
-110 214 -189 0
110 214 -190 0
-110 -214 -190 0
127 -214 -197 0
-127 214 -197 0
127 214 -198 0
-127 -214 -198 0
9 -215 -141 0
-9 215 -141 0
9 215 -142 0
-9 -215 -142 0
26 -215 -149 0
-26 215 -149 0
26 215 -150 0
-26 -215 -150 0
43 -215 -157 0
-43 215 -157 0
43 215 -158 0
-43 -215 -158 0
60 -215 -165 0
-60 215 -165 0
60 215 -166 0
-60 -215 -166 0
77 -215 -173 0
-77 215 -173 0
77 215 -174 0
-77 -215 -174 0
94 -215 -181 0
-94 215 -181 0
94 215 -182 0
-94 -215 -182 0
111 -215 -189 0
-111 215 -189 0
111 215 -190 0
-111 -215 -190 0
128 -215 -197 0
-128 215 -197 0
128 215 -198 0
-128 -215 -198 0
10 -216 -141 0
-10 216 -141 0
10 216 -142 0
-10 -216 -142 0
27 -216 -149 0
-27 216 -149 0
27 216 -150 0
-27 -216 -150 0
44 -216 -157 0
-44 216 -157 0
44 216 -158 0
-44 -216 -158 0
61 -216 -165 0
-61 216 -165 0
61 216 -166 0
-61 -216 -166 0
78 -216 -173 0
-78 216 -173 0
78 216 -174 0
-78 -216 -174 0
95 -216 -181 0
-95 216 -181 0
95 216 -182 0
-95 -216 -182 0
112 -216 -189 0
-112 216 -189 0
112 216 -190 0
-112 -216 -190 0
129 -216 -197 0
-129 216 -197 0
129 216 -198 0
-129 -216 -198 0
11 -217 -141 0
-11 217 -141 0
11 217 -142 0
-11 -217 -142 0
28 -217 -149 0
-28 217 -149 0
28 217 -150 0
-28 -217 -150 0
45 -217 -157 0
-45 217 -157 0
45 217 -158 0
-45 -217 -158 0
62 -217 -165 0
-62 217 -165 0
62 217 -166 0
-62 -217 -166 0
79 -217 -173 0
-79 217 -173 0
79 217 -174 0
-79 -217 -174 0
96 -217 -181 0
-96 217 -181 0
96 217 -182 0
-96 -217 -182 0
113 -217 -189 0
-113 217 -189 0
113 217 -190 0
-113 -217 -190 0
130 -217 -197 0
-130 217 -197 0
130 217 -198 0
-130 -217 -198 0
12 -218 -141 0
-12 218 -141 0
12 218 -142 0
-12 -218 -142 0
29 -218 -149 0
-29 218 -149 0
29 218 -150 0
-29 -218 -150 0
46 -218 -157 0
-46 218 -157 0
46 218 -158 0
-46 -218 -158 0
63 -218 -165 0
-63 218 -165 0
63 218 -166 0
-63 -218 -166 0
80 -218 -173 0
-80 218 -173 0
80 218 -174 0
-80 -218 -174 0
97 -218 -181 0
-97 218 -181 0
97 218 -182 0
-97 -218 -182 0
114 -218 -189 0
-114 218 -189 0
114 218 -190 0
-114 -218 -190 0
131 -218 -197 0
-131 218 -197 0
131 218 -198 0
-131 -218 -198 0
13 -141 0
13 -142 0
141 -141 0
142 -142 0
30 -149 0
30 -150 0
149 -149 0
150 -150 0
47 -157 0
47 -158 0
157 -157 0
158 -158 0
64 -165 0
64 -166 0
165 -165 0
166 -166 0
81 -173 0
81 -174 0
173 -173 0
174 -174 0
98 -181 0
98 -182 0
181 -181 0
182 -182 0
115 -189 0
115 -190 0
189 -189 0
190 -190 0
132 -197 0
132 -198 0
197 -197 0
198 -198 0
14 -219 -141 0
-14 219 -141 0
14 219 -142 0
-14 -219 -142 0
31 -219 -149 0
-31 219 -149 0
31 219 -150 0
-31 -219 -150 0
48 -219 -157 0
-48 219 -157 0
48 219 -158 0
-48 -219 -158 0
65 -219 -165 0
-65 219 -165 0
65 219 -166 0
-65 -219 -166 0
82 -219 -173 0
-82 219 -173 0
82 219 -174 0
-82 -219 -174 0
99 -219 -181 0
-99 219 -181 0
99 219 -182 0
-99 -219 -182 0
116 -219 -189 0
-116 219 -189 0
116 219 -190 0
-116 -219 -190 0
133 -219 -197 0
-133 219 -197 0
133 219 -198 0
-133 -219 -198 0
15 -220 -141 0
-15 220 -141 0
15 220 -142 0
-15 -220 -142 0
32 -220 -149 0
-32 220 -149 0
32 220 -150 0
-32 -220 -150 0
49 -220 -157 0
-49 220 -157 0
49 220 -158 0
-49 -220 -158 0
66 -220 -165 0
-66 220 -165 0
66 220 -166 0
-66 -220 -166 0
83 -220 -173 0
-83 220 -173 0
83 220 -174 0
-83 -220 -174 0
100 -220 -181 0
-100 220 -181 0
100 220 -182 0
-100 -220 -182 0
117 -220 -189 0
-117 220 -189 0
117 220 -190 0
-117 -220 -190 0
134 -220 -197 0
-134 220 -197 0
134 220 -198 0
-134 -220 -198 0
16 -141 0
16 -142 0
141 -141 0
142 -142 0
33 -149 0
33 -150 0
149 -149 0
150 -150 0
50 -157 0
50 -158 0
157 -157 0
158 -158 0
67 -165 0
67 -166 0
165 -165 0
166 -166 0
84 -173 0
84 -174 0
173 -173 0
174 -174 0
101 -181 0
101 -182 0
181 -181 0
182 -182 0
118 -189 0
118 -190 0
189 -189 0
190 -190 0
135 -197 0
135 -198 0
197 -197 0
198 -198 0
17 -141 0
17 -142 0
141 -141 0
142 -142 0
34 -149 0
34 -150 0
149 -149 0
150 -150 0
51 -157 0
51 -158 0
157 -157 0
158 -158 0
68 -165 0
68 -166 0
165 -165 0
166 -166 0
85 -173 0
85 -174 0
173 -173 0
174 -174 0
102 -181 0
102 -182 0
181 -181 0
182 -182 0
119 -189 0
119 -190 0
189 -189 0
190 -190 0
136 -197 0
136 -198 0
197 -197 0
198 -198 0
-273 141 0
273 -141 0
-274 142 0
273 -142 0
-273 -141 0
-274 -142 0
-281 141 273 0
281 -141 0
281 -273 0
-282 142 274 0
282 -142 0
282 -274 0
-281 -149 0
-282 -150 0
-289 149 281 0
289 -149 0
289 -281 0
-290 150 282 0
290 -150 0
290 -282 0
-289 -157 0
-290 -158 0
-297 157 289 0
297 -157 0
297 -289 0
-298 158 290 0
298 -158 0
298 -290 0
-297 -165 0
-298 -166 0
-305 165 297 0
305 -165 0
305 -297 0
-306 166 298 0
306 -166 0
306 -298 0
-305 -173 0
-306 -174 0
-313 173 305 0
313 -173 0
313 -305 0
-314 174 306 0
314 -174 0
314 -306 0
-313 -181 0
-314 -182 0
-321 181 313 0
321 -181 0
321 -313 0
-322 182 314 0
322 -182 0
322 -314 0
-321 -189 0
-322 -190 0
-329 189 321 0
329 -189 0
329 -321 0
-330 190 322 0
330 -190 0
330 -322 0
-329 -197 0
-330 -198 0
329 0
330 0
-1 -143 0
-1 -144 0
143 -143 0
144 -144 0
-18 -151 0
-18 -152 0
151 -151 0
152 -152 0
-35 -159 0
-35 -160 0
159 -159 0
160 -160 0
-52 -167 0
-52 -168 0
167 -167 0
168 -168 0
-69 -175 0
-69 -176 0
175 -175 0
176 -176 0
-86 -183 0
-86 -184 0
183 -183 0
184 -184 0
-103 -191 0
-103 -192 0
191 -191 0
192 -192 0
-120 -199 0
-120 -200 0
199 -199 0
200 -200 0
2 -143 0
2 -144 0
143 -143 0
144 -144 0
19 -151 0
19 -152 0
151 -151 0
152 -152 0
36 -159 0
36 -160 0
159 -159 0
160 -160 0
53 -167 0
53 -168 0
167 -167 0
168 -168 0
70 -175 0
70 -176 0
175 -175 0
176 -176 0
87 -183 0
87 -184 0
183 -183 0
184 -184 0
104 -191 0
104 -192 0
191 -191 0
192 -192 0
121 -199 0
121 -200 0
199 -199 0
200 -200 0
3 -221 -143 0
-3 221 -143 0
3 221 -144 0
-3 -221 -144 0
20 -221 -151 0
-20 221 -151 0
20 221 -152 0
-20 -221 -152 0
37 -221 -159 0
-37 221 -159 0
37 221 -160 0
-37 -221 -160 0
54 -221 -167 0
-54 221 -167 0
54 221 -168 0
-54 -221 -168 0
71 -221 -175 0
-71 221 -175 0
71 221 -176 0
-71 -221 -176 0
88 -221 -183 0
-88 221 -183 0
88 221 -184 0
-88 -221 -184 0
105 -221 -191 0
-105 221 -191 0
105 221 -192 0
-105 -221 -192 0
122 -221 -199 0
-122 221 -199 0
122 221 -200 0
-122 -221 -200 0
4 -143 0
4 -144 0
143 -143 0
144 -144 0
21 -151 0
21 -152 0
151 -151 0
152 -152 0
38 -159 0
38 -160 0
159 -159 0
160 -160 0
55 -167 0
55 -168 0
167 -167 0
168 -168 0
72 -175 0
72 -176 0
175 -175 0
176 -176 0
89 -183 0
89 -184 0
183 -183 0
184 -184 0
106 -191 0
106 -192 0
191 -191 0
192 -192 0
123 -199 0
123 -200 0
199 -199 0
200 -200 0
5 -222 -143 0
-5 222 -143 0
5 222 -144 0
-5 -222 -144 0
22 -222 -151 0
-22 222 -151 0
22 222 -152 0
-22 -222 -152 0
39 -222 -159 0
-39 222 -159 0
39 222 -160 0
-39 -222 -160 0
56 -222 -167 0
-56 222 -167 0
56 222 -168 0
-56 -222 -168 0
73 -222 -175 0
-73 222 -175 0
73 222 -176 0
-73 -222 -176 0
90 -222 -183 0
-90 222 -183 0
90 222 -184 0
-90 -222 -184 0
107 -222 -191 0
-107 222 -191 0
107 222 -192 0
-107 -222 -192 0
124 -222 -199 0
-124 222 -199 0
124 222 -200 0
-124 -222 -200 0
6 -223 -143 0
-6 223 -143 0
6 223 -144 0
-6 -223 -144 0
23 -223 -151 0
-23 223 -151 0
23 223 -152 0
-23 -223 -152 0
40 -223 -159 0
-40 223 -159 0
40 223 -160 0
-40 -223 -160 0
57 -223 -167 0
-57 223 -167 0
57 223 -168 0
-57 -223 -168 0
74 -223 -175 0
-74 223 -175 0
74 223 -176 0
-74 -223 -176 0
91 -223 -183 0
-91 223 -183 0
91 223 -184 0
-91 -223 -184 0
108 -223 -191 0
-108 223 -191 0
108 223 -192 0
-108 -223 -192 0
125 -223 -199 0
-125 223 -199 0
125 223 -200 0
-125 -223 -200 0
7 -224 -143 0
-7 224 -143 0
7 224 -144 0
-7 -224 -144 0
24 -224 -151 0
-24 224 -151 0
24 224 -152 0
-24 -224 -152 0
41 -224 -159 0
-41 224 -159 0
41 224 -160 0
-41 -224 -160 0
58 -224 -167 0
-58 224 -167 0
58 224 -168 0
-58 -224 -168 0
75 -224 -175 0
-75 224 -175 0
75 224 -176 0
-75 -224 -176 0
92 -224 -183 0
-92 224 -183 0
92 224 -184 0
-92 -224 -184 0
109 -224 -191 0
-109 224 -191 0
109 224 -192 0
-109 -224 -192 0
126 -224 -199 0
-126 224 -199 0
126 224 -200 0
-126 -224 -200 0
8 -143 0
8 -144 0
143 -143 0
144 -144 0
25 -151 0
25 -152 0
151 -151 0
152 -152 0
42 -159 0
42 -160 0
159 -159 0
160 -160 0
59 -167 0
59 -168 0
167 -167 0
168 -168 0
76 -175 0
76 -176 0
175 -175 0
176 -176 0
93 -183 0
93 -184 0
183 -183 0
184 -184 0
110 -191 0
110 -192 0
191 -191 0
192 -192 0
127 -199 0
127 -200 0
199 -199 0
200 -200 0
9 -143 0
9 -144 0
143 -143 0
144 -144 0
26 -151 0
26 -152 0
151 -151 0
152 -152 0
43 -159 0
43 -160 0
159 -159 0
160 -160 0
60 -167 0
60 -168 0
167 -167 0
168 -168 0
77 -175 0
77 -176 0
175 -175 0
176 -176 0
94 -183 0
94 -184 0
183 -183 0
184 -184 0
111 -191 0
111 -192 0
191 -191 0
192 -192 0
128 -199 0
128 -200 0
199 -199 0
200 -200 0
10 -143 0
10 -144 0
143 -143 0
144 -144 0
27 -151 0
27 -152 0
151 -151 0
152 -152 0
44 -159 0
44 -160 0
159 -159 0
160 -160 0
61 -167 0
61 -168 0
167 -167 0
168 -168 0
78 -175 0
78 -176 0
175 -175 0
176 -176 0
95 -183 0
95 -184 0
183 -183 0
184 -184 0
112 -191 0
112 -192 0
191 -191 0
192 -192 0
129 -199 0
129 -200 0
199 -199 0
200 -200 0
11 -225 -143 0
-11 225 -143 0
11 225 -144 0
-11 -225 -144 0
28 -225 -151 0
-28 225 -151 0
28 225 -152 0
-28 -225 -152 0
45 -225 -159 0
-45 225 -159 0
45 225 -160 0
-45 -225 -160 0
62 -225 -167 0
-62 225 -167 0
62 225 -168 0
-62 -225 -168 0
79 -225 -175 0
-79 225 -175 0
79 225 -176 0
-79 -225 -176 0
96 -225 -183 0
-96 225 -183 0
96 225 -184 0
-96 -225 -184 0
113 -225 -191 0
-113 225 -191 0
113 225 -192 0
-113 -225 -192 0
130 -225 -199 0
-130 225 -199 0
130 225 -200 0
-130 -225 -200 0
12 -143 0
12 -144 0
143 -143 0
144 -144 0
29 -151 0
29 -152 0
151 -151 0
152 -152 0
46 -159 0
46 -160 0
159 -159 0
160 -160 0
63 -167 0
63 -168 0
167 -167 0
168 -168 0
80 -175 0
80 -176 0
175 -175 0
176 -176 0
97 -183 0
97 -184 0
183 -183 0
184 -184 0
114 -191 0
114 -192 0
191 -191 0
192 -192 0
131 -199 0
131 -200 0
199 -199 0
200 -200 0
13 -226 -143 0
-13 226 -143 0
13 226 -144 0
-13 -226 -144 0
30 -226 -151 0
-30 226 -151 0
30 226 -152 0
-30 -226 -152 0
47 -226 -159 0
-47 226 -159 0
47 226 -160 0
-47 -226 -160 0
64 -226 -167 0
-64 226 -167 0
64 226 -168 0
-64 -226 -168 0
81 -226 -175 0
-81 226 -175 0
81 226 -176 0
-81 -226 -176 0
98 -226 -183 0
-98 226 -183 0
98 226 -184 0
-98 -226 -184 0
115 -226 -191 0
-115 226 -191 0
115 226 -192 0
-115 -226 -192 0
132 -226 -199 0
-132 226 -199 0
132 226 -200 0
-132 -226 -200 0
14 -143 0
14 -144 0
143 -143 0
144 -144 0
31 -151 0
31 -152 0
151 -151 0
152 -152 0
48 -159 0
48 -160 0
159 -159 0
160 -160 0
65 -167 0
65 -168 0
167 -167 0
168 -168 0
82 -175 0
82 -176 0
175 -175 0
176 -176 0
99 -183 0
99 -184 0
183 -183 0
184 -184 0
116 -191 0
116 -192 0
191 -191 0
192 -192 0
133 -199 0
133 -200 0
199 -199 0
200 -200 0
15 -227 -143 0
-15 227 -143 0
15 227 -144 0
-15 -227 -144 0
32 -227 -151 0
-32 227 -151 0
32 227 -152 0
-32 -227 -152 0
49 -227 -159 0
-49 227 -159 0
49 227 -160 0
-49 -227 -160 0
66 -227 -167 0
-66 227 -167 0
66 227 -168 0
-66 -227 -168 0
83 -227 -175 0
-83 227 -175 0
83 227 -176 0
-83 -227 -176 0
100 -227 -183 0
-100 227 -183 0
100 227 -184 0
-100 -227 -184 0
117 -227 -191 0
-117 227 -191 0
117 227 -192 0
-117 -227 -192 0
134 -227 -199 0
-134 227 -199 0
134 227 -200 0
-134 -227 -200 0
16 -228 -143 0
-16 228 -143 0
16 228 -144 0
-16 -228 -144 0
33 -228 -151 0
-33 228 -151 0
33 228 -152 0
-33 -228 -152 0
50 -228 -159 0
-50 228 -159 0
50 228 -160 0
-50 -228 -160 0
67 -228 -167 0
-67 228 -167 0
67 228 -168 0
-67 -228 -168 0
84 -228 -175 0
-84 228 -175 0
84 228 -176 0
-84 -228 -176 0
101 -228 -183 0
-101 228 -183 0
101 228 -184 0
-101 -228 -184 0
118 -228 -191 0
-118 228 -191 0
118 228 -192 0
-118 -228 -192 0
135 -228 -199 0
-135 228 -199 0
135 228 -200 0
-135 -228 -200 0
17 -229 -143 0
-17 229 -143 0
17 229 -144 0
-17 -229 -144 0
34 -229 -151 0
-34 229 -151 0
34 229 -152 0
-34 -229 -152 0
51 -229 -159 0
-51 229 -159 0
51 229 -160 0
-51 -229 -160 0
68 -229 -167 0
-68 229 -167 0
68 229 -168 0
-68 -229 -168 0
85 -229 -175 0
-85 229 -175 0
85 229 -176 0
-85 -229 -176 0
102 -229 -183 0
-102 229 -183 0
102 229 -184 0
-102 -229 -184 0
119 -229 -191 0
-119 229 -191 0
119 229 -192 0
-119 -229 -192 0
136 -229 -199 0
-136 229 -199 0
136 229 -200 0
-136 -229 -200 0
-275 143 0
275 -143 0
-276 144 0
275 -144 0
-275 -143 0
-276 -144 0
-283 143 275 0
283 -143 0
283 -275 0
-284 144 276 0
284 -144 0
284 -276 0
-283 -151 0
-284 -152 0
-291 151 283 0
291 -151 0
291 -283 0
-292 152 284 0
292 -152 0
292 -284 0
-291 -159 0
-292 -160 0
-299 159 291 0
299 -159 0
299 -291 0
-300 160 292 0
300 -160 0
300 -292 0
-299 -167 0
-300 -168 0
-307 167 299 0
307 -167 0
307 -299 0
-308 168 300 0
308 -168 0
308 -300 0
-307 -175 0
-308 -176 0
-315 175 307 0
315 -175 0
315 -307 0
-316 176 308 0
316 -176 0
316 -308 0
-315 -183 0
-316 -184 0
-323 183 315 0
323 -183 0
323 -315 0
-324 184 316 0
324 -184 0
324 -316 0
-323 -191 0
-324 -192 0
-331 191 323 0
331 -191 0
331 -323 0
-332 192 324 0
332 -192 0
332 -324 0
-331 -199 0
-332 -200 0
331 0
332 0
